
Log started (V12.4.0.0) Sun Jul 22 21:17:52 2012


Selected objective sense:  MINIMIZE
Selected objective  name:  COST
Selected RHS        name:  B
Selected bound      name:  BND

Problem 'in.mps' read.
Read time =    0.01 sec.
Tried aggregator 1 time.
MIP Presolve eliminated 0 rows and 135 columns.
Reduced MIP has 10 rows, 74 columns, and 264 nonzeros.
Reduced MIP has 74 binaries, 0 generals, 0 SOSs, and 0 indicators.
Probing time =    0.00 sec.
Tried aggregator 1 time.
Presolve time =    0.02 sec.
Probing time =    0.00 sec.
Clique table members: 10.
MIP emphasis: balance optimality and feasibility.
MIP search method: dynamic search.
Parallel mode: deterministic, using up to 4 threads.
Root relaxation solution time =    0.01 sec.

        Nodes                                         Cuts/
   Node  Left     Objective  IInf  Best Integer    Best Bound    ItCnt     Gap

*     0+    0                         3082.0000                      6     --- 
*     0     0      integral     0     1570.0000     1570.0000        6    0.00%
Elapsed real time =   0.05 sec. (tree size =  0.00 MB, solutions = 2)

Root node processing (before b&c):
  Real time             =    0.02
Parallel b&c, 4 threads:
  Real time             =    0.00
  Sync time (average)   =    0.00
  Wait time (average)   =    0.00
                          -------
Total (root+branch&cut) =    0.02 sec.

Solution pool: 2 solutions saved.

MIP - Integer optimal solution:  Objective =  1.5700000000e+03
Solution time =    0.05 sec.  Iterations = 6  Nodes = 0
Deterministic time = 1.39 ticks  (28.74 ticks/sec)


Log started (V12.4.0.0) Sun Jul 22 21:33:22 2012


Selected objective sense:  MINIMIZE
Selected objective  name:  COST
Selected RHS        name:  B
Selected bound      name:  BND

Problem 'in.mps' read.
Read time =    1.43 sec.
Tried aggregator 1 time.
MIP Presolve eliminated 0 rows and 269226 columns.
Reduced MIP has 24 rows, 61138 columns, and 520132 nonzeros.
Reduced MIP has 61138 binaries, 0 generals, 0 SOSs, and 0 indicators.
Presolve time =    1.70 sec.
Probing time =    0.21 sec.
Clique table members: 24.
MIP emphasis: balance optimality and feasibility.
MIP search method: dynamic search.
Parallel mode: deterministic, using up to 4 threads.
Root relaxation solution time =    0.25 sec.

        Nodes                                         Cuts/
   Node  Left     Objective  IInf  Best Integer    Best Bound    ItCnt     Gap

*     0     0      integral     0     1942.0000     1942.0000       25    0.00%
Elapsed real time =   3.54 sec. (tree size =  0.00 MB, solutions = 1)

Root node processing (before b&c):
  Real time             =    1.84
Parallel b&c, 4 threads:
  Real time             =    0.00
  Sync time (average)   =    0.00
  Wait time (average)   =    0.00
                          -------
Total (root+branch&cut) =    1.84 sec.

Solution pool: 1 solution saved.

MIP - Integer optimal solution:  Objective =  1.9420000000e+03
Solution time =    3.59 sec.  Iterations = 25  Nodes = 0
Deterministic time = 1036.05 ticks  (288.36 ticks/sec)


Selected objective sense:  MINIMIZE
Selected objective  name:  COST
Selected RHS        name:  B
Selected bound      name:  BND

Problem 'in.mps' read.
Read time =    0.01 sec.
Tried aggregator 1 time.
MIP Presolve eliminated 0 rows and 84 columns.
Reduced MIP has 24 rows, 1420 columns, and 6792 nonzeros.
Reduced MIP has 1420 binaries, 0 generals, 0 SOSs, and 0 indicators.
Presolve time =    0.01 sec.
Probing time =    0.00 sec.
Clique table members: 24.
MIP emphasis: balance optimality and feasibility.
MIP search method: dynamic search.
Parallel mode: deterministic, using up to 4 threads.
Root relaxation solution time =    0.00 sec.

        Nodes                                         Cuts/
   Node  Left     Objective  IInf  Best Integer    Best Bound    ItCnt     Gap

*     0     0      integral     0     1942.0000     1942.0000       25    0.00%
Elapsed real time =   0.02 sec. (tree size =  0.00 MB, solutions = 1)

Root node processing (before b&c):
  Real time             =    0.01
Parallel b&c, 4 threads:
  Real time             =    0.00
  Sync time (average)   =    0.00
  Wait time (average)   =    0.00
                          -------
Total (root+branch&cut) =    0.01 sec.

Solution pool: 1 solution saved.

MIP - Integer optimal solution:  Objective =  1.9420000000e+03
Solution time =    0.02 sec.  Iterations = 25  Nodes = 0
Deterministic time = 10.41 ticks  (437.60 ticks/sec)


Selected objective sense:  MINIMIZE
Selected objective  name:  COST
Selected RHS        name:  B
Selected bound      name:  BND

Problem 'in.mps' read.
Read time =    0.00 sec.
Infeasibility row 'F1554':  0  = 1.
Presolve time =    0.00 sec.


MIP - Integer infeasible.
Current MIP best bound is infinite.
Solution time =    0.00 sec.  Iterations = 0  Nodes = 0
Deterministic time = 0.08 ticks  (83.37 ticks/sec)


Selected objective sense:  MINIMIZE
Selected objective  name:  COST
Selected RHS        name:  B
Selected bound      name:  BND

Problem 'in.mps' read.
Read time =    0.02 sec.
Tried aggregator 1 time.
MIP Presolve eliminated 0 rows and 499 columns.
Reduced MIP has 30 rows, 4738 columns, and 26054 nonzeros.
Reduced MIP has 4738 binaries, 0 generals, 0 SOSs, and 0 indicators.
Presolve time =    0.03 sec.
Probing time =    0.01 sec.
Clique table members: 30.
MIP emphasis: balance optimality and feasibility.
MIP search method: dynamic search.
Parallel mode: deterministic, using up to 4 threads.
Root relaxation solution time =    0.01 sec.

        Nodes                                         Cuts/
   Node  Left     Objective  IInf  Best Integer    Best Bound    ItCnt     Gap

*     0     0      integral     0     1670.0000     1670.0000       29    0.00%
Elapsed real time =   0.08 sec. (tree size =  0.00 MB, solutions = 1)

Root node processing (before b&c):
  Real time             =    0.06
Parallel b&c, 4 threads:
  Real time             =    0.00
  Sync time (average)   =    0.00
  Wait time (average)   =    0.00
                          -------
Total (root+branch&cut) =    0.06 sec.

Solution pool: 1 solution saved.

MIP - Integer optimal solution:  Objective =  1.6700000000e+03
Solution time =    0.09 sec.  Iterations = 29  Nodes = 0
Deterministic time = 35.42 ticks  (411.41 ticks/sec)


Selected objective sense:  MINIMIZE
Selected objective  name:  COST
Selected RHS        name:  B
Selected bound      name:  BND

Problem 'in.mps' read.
Read time =    1.60 sec.
Tried aggregator 1 time.
MIP Presolve eliminated 0 rows and 128660 columns.
Reduced MIP has 30 rows, 170446 columns, and 1445008 nonzeros.
Reduced MIP has 170446 binaries, 0 generals, 0 SOSs, and 0 indicators.
Presolve time =    2.25 sec.
Probing time =    0.60 sec.
Clique table members: 30.
MIP emphasis: balance optimality and feasibility.
MIP search method: dynamic search.
Parallel mode: deterministic, using up to 4 threads.
Root relaxation solution time =    0.69 sec.

        Nodes                                         Cuts/
   Node  Left     Objective  IInf  Best Integer    Best Bound    ItCnt     Gap

*     0     0      integral     0     1670.0000     1670.0000       29    0.00%
Elapsed real time =  22.83 sec. (tree size =  0.00 MB, solutions = 1)

Root node processing (before b&c):
  Real time             =   20.59
Parallel b&c, 4 threads:
  Real time             =    0.00
  Sync time (average)   =    0.00
  Wait time (average)   =    0.00
                          -------
Total (root+branch&cut) =   20.59 sec.

Solution pool: 1 solution saved.

MIP - Integer optimal solution:  Objective =  1.6700000000e+03
Solution time =   22.93 sec.  Iterations = 29  Nodes = 0
Deterministic time = 1953.47 ticks  (85.19 ticks/sec)


Log started (V12.4.0.0) Sun Jul 22 21:42:43 2012


Selected objective sense:  MINIMIZE
Selected objective  name:  COST
Selected RHS        name:  B
Selected bound      name:  BND

Problem 'in.mps' read.
Read time =    0.00 sec.
Tried aggregator 1 time.
MIP Presolve eliminated 0 rows and 30 columns.
Reduced MIP has 10 rows, 65 columns, and 210 nonzeros.
Reduced MIP has 65 binaries, 0 generals, 0 SOSs, and 0 indicators.
Probing time =    0.00 sec.
Tried aggregator 1 time.
Presolve time =    0.00 sec.
Probing time =    0.00 sec.
Clique table members: 10.
MIP emphasis: balance optimality and feasibility.
MIP search method: dynamic search.
Parallel mode: deterministic, using up to 4 threads.
Root relaxation solution time =    0.00 sec.

        Nodes                                         Cuts/
   Node  Left     Objective  IInf  Best Integer    Best Bound    ItCnt     Gap

*     0     0      integral     0     1810.0000     1810.0000        7    0.00%
Elapsed real time =   0.01 sec. (tree size =  0.00 MB, solutions = 1)

Root node processing (before b&c):
  Real time             =    0.00
Parallel b&c, 4 threads:
  Real time             =    0.00
  Sync time (average)   =    0.00
  Wait time (average)   =    0.00
                          -------
Total (root+branch&cut) =    0.00 sec.

Solution pool: 1 solution saved.

MIP - Integer optimal solution:  Objective =  1.8100000000e+03
Solution time =    0.01 sec.  Iterations = 7  Nodes = 0
Deterministic time = 0.94 ticks  (110.28 ticks/sec)

